Reading model...
...model read.
creating competitive generators file...
...competitive generators recorded.
Loading data...
.. real-time data read.
Compiling instance...
...instance created.
Creating Offer Mitigation (model will solve as dispatch if TRUE)...
...storage offer mitigation file created
Converting model to MPEC...
...converted
NOTE: initial MIP solve with only storage competitive to get feasible solution
Solving...

Welcome to IBM(R) ILOG(R) CPLEX(R) Interactive Optimizer 12.10.0.0
  with Simplex, Mixed Integer & Barrier Optimizers
5725-A06 5725-A29 5724-Y48 5724-Y49 5724-Y54 5724-Y55 5655-Y21
Copyright IBM Corp. 1988, 2019.  All Rights Reserved.

Type 'help' for a list of available commands.
Type 'help' followed by a command name for more
information on commands.

CPLEX> Logfile 'cplex.log' closed.
Logfile 'C:\Users\wenmi\Desktop\competitiveMPEC\logs\tmpm74mq985.cplex.log' open.
CPLEX> New value for parallel optimization mode: -1
CPLEX> New value for mixed integer optimality gap tolerance: 0.05
CPLEX> New value for deterministic time limit in ticks: 100000
CPLEX> Problem 'C:\Users\wenmi\Desktop\competitiveMPEC\logs\tmpztsbdw7e.pyomo.lp' read.
Read time = 0.31 sec. (27.41 ticks)
CPLEX> Problem name         : C:\Users\wenmi\Desktop\competitiveMPEC\logs\tmpztsbdw7e.pyomo.lp
Objective sense      : Maximize
Variables            :  107779  [Nneg: 1,  Box: 44054,  Free: 8928,
                                 Binary: 54796]
Objective nonzeros   :   17522
Linear constraints   :  246995  [Less: 82866,  Greater: 118424,  Equal: 45705]
  Nonzeros           :  580829
  RHS nonzeros       :  134639

Variables            : Min LB: -5000.000        Max UB: 1000000.       
Objective nonzeros   : Min   : 0.01666667       Max   : 2500.000       
Linear constraints   :
  Nonzeros           : Min   : 0.01666667       Max   : 1000000.       
  RHS nonzeros       : Min   : 0.01666667       Max   : 1000000.       
CPLEX> Version identifier: 12.10.0.0 | 2019-11-26 | 843d4de2ae
CPXPARAM_Parallel                                -1
CPXPARAM_DetTimeLimit                            100000
CPXPARAM_MIP_Tolerances_MIPGap                   0.050000000000000003
Tried aggregator 3 times.
MIP Presolve eliminated 181760 rows and 41481 columns.
MIP Presolve added 6048 rows and 0 columns.
MIP Presolve modified 48870 coefficients.
Aggregator did 25786 substitutions.
Reduced MIP has 45497 rows, 38880 columns, and 126129 nonzeros.
Reduced MIP has 15283 binaries, 0 generals, 0 SOSs, and 0 indicators.
Presolve time = 0.33 sec. (327.66 ticks)
Probing fixed 730 vars, tightened 6991 bounds.
Probing time = 0.09 sec. (14.46 ticks)
Tried aggregator 2 times.
Detecting symmetries...
MIP Presolve eliminated 1654 rows and 1462 columns.
MIP Presolve modified 5488 coefficients.
Aggregator did 86 substitutions.
Reduced MIP has 43757 rows, 37332 columns, and 121101 nonzeros.
Reduced MIP has 14552 binaries, 0 generals, 0 SOSs, and 0 indicators.
Presolve time = 0.13 sec. (207.55 ticks)
Probing fixed 1 vars, tightened 298 bounds.
Probing time = 0.16 sec. (21.56 ticks)
Clique table members: 81677.
MIP emphasis: balance optimality and feasibility.
MIP search method: dynamic search.
Parallel mode: opportunistic, using up to 16 threads.
Root relaxation solution time = 0.59 sec. (1816.94 ticks)

        Nodes                                         Cuts/
   Node  Left     Objective  IInf  Best Integer    Best Bound    ItCnt     Gap

      0     0    -1930.7190   369                  -1930.7190    10433         
*     0+    0                        -1930.7190    -1930.7190             0.00%
      0     0        cutoff          -1930.7190    -1930.7190    10433    0.00%
Elapsed time = 2.38 sec. (3915.04 ticks, tree = 0.01 MB, solutions = 1)

Root node processing (before b&c):
  Real time             =    2.39 sec. (3918.63 ticks)
Parallel b&c, 16 threads:
  Real time             =    0.00 sec. (0.00 ticks)
  Sync time (average)   =    0.00 sec.
  Wait time (average)   =    0.00 sec.
                          ------------
Total (root+branch&cut) =    2.39 sec. (3918.63 ticks)

Solution pool: 1 solution saved.

MIP - Integer optimal solution:  Objective = -1.9307189506e+03
Solution time =    2.39 sec.  Iterations = 10433  Nodes = 0
Deterministic time = 3918.93 ticks  (1639.04 ticks/sec)

CPLEX> Incumbent solution written to file 'C:\Users\wenmi\Desktop\competitiveMPEC\logs\tmp2bei8b_j.cplex.sol'.
CPLEX> NOTE: no warmstart specified for MIP iteration, default behavior is true
NOTE: resolving with all competitive generators using storage-only solution to warmstart
Solving...

Welcome to IBM(R) ILOG(R) CPLEX(R) Interactive Optimizer 12.10.0.0
  with Simplex, Mixed Integer & Barrier Optimizers
5725-A06 5725-A29 5724-Y48 5724-Y49 5724-Y54 5724-Y55 5655-Y21
Copyright IBM Corp. 1988, 2019.  All Rights Reserved.

Type 'help' for a list of available commands.
Type 'help' followed by a command name for more
information on commands.

CPLEX> Logfile 'cplex.log' closed.
Logfile 'C:\Users\wenmi\Desktop\competitiveMPEC\logs\tmpa8xttn1u.cplex.log' open.
CPLEX> New value for parallel optimization mode: -1
CPLEX> New value for mixed integer optimality gap tolerance: 0.05
CPLEX> New value for deterministic time limit in ticks: 100000
CPLEX> Problem 'C:\Users\wenmi\Desktop\competitiveMPEC\logs\tmp9_8nk5zj.pyomo.lp' read.
Read time = 0.31 sec. (27.45 ticks)
CPLEX> MIP start file 'C:\Users\wenmi\Desktop\competitiveMPEC\logs\tmplb0hipib.cplex.mst' read.
CPLEX> Problem name         : C:\Users\wenmi\Desktop\competitiveMPEC\logs\tmp9_8nk5zj.pyomo.lp
Objective sense      : Maximize
Variables            :  109219  [Nneg: 1,  Box: 45494,  Free: 8928,
                                 Binary: 54796]
Objective nonzeros   :   18914
Linear constraints   :  246995  [Less: 82866,  Greater: 118424,  Equal: 45705]
  Nonzeros           :  580829
  RHS nonzeros       :  134639

Variables            : Min LB: -5000.000        Max UB: 1000000.       
Objective nonzeros   : Min   : 0.01666667       Max   : 2500.000       
Linear constraints   :
  Nonzeros           : Min   : 0.01666667       Max   : 1000000.       
  RHS nonzeros       : Min   : 0.01666667       Max   : 1000000.       
CPLEX> Version identifier: 12.10.0.0 | 2019-11-26 | 843d4de2ae
CPXPARAM_Parallel                                -1
CPXPARAM_DetTimeLimit                            100000
CPXPARAM_MIP_Tolerances_MIPGap                   0.050000000000000003
Warning:  No solution found from 1 MIP starts.
Retaining values of one MIP start for possible repair.
Tried aggregator 3 times.
MIP Presolve eliminated 181760 rows and 42921 columns.
MIP Presolve added 6048 rows and 0 columns.
MIP Presolve modified 48870 coefficients.
Aggregator did 25786 substitutions.
Reduced MIP has 45497 rows, 38880 columns, and 126129 nonzeros.
Reduced MIP has 15283 binaries, 0 generals, 0 SOSs, and 0 indicators.
Presolve time = 0.33 sec. (328.37 ticks)
Probing fixed 730 vars, tightened 6991 bounds.
Probing time = 0.08 sec. (14.46 ticks)
Tried aggregator 2 times.
Detecting symmetries...
MIP Presolve eliminated 1654 rows and 1462 columns.
MIP Presolve modified 5488 coefficients.
Aggregator did 86 substitutions.
Reduced MIP has 43757 rows, 37332 columns, and 121101 nonzeros.
Reduced MIP has 14552 binaries, 0 generals, 0 SOSs, and 0 indicators.
Presolve time = 0.14 sec. (207.56 ticks)
Probing fixed 1 vars, tightened 298 bounds.
Probing time = 0.14 sec. (21.56 ticks)
Clique table members: 81677.
MIP emphasis: balance optimality and feasibility.
MIP search method: dynamic search.
Parallel mode: opportunistic, using up to 16 threads.
Root relaxation solution time = 0.64 sec. (1996.02 ticks)

        Nodes                                         Cuts/
   Node  Left     Objective  IInf  Best Integer    Best Bound    ItCnt     Gap

      0     0    30241.6616   446                  30241.6616    11580         
      0     0    30240.2737   446               Flowcuts: 165    11697         
      0     0    30239.7921   446                    Cuts: 56    11734         
*     0+    0                        30121.3343    30239.7921             0.39%

Cover cuts applied:  2
Flow cuts applied:  165

Root node processing (before b&c):
  Real time             =    2.91 sec. (4190.08 ticks)
Parallel b&c, 16 threads:
  Real time             =    0.00 sec. (0.00 ticks)
  Sync time (average)   =    0.00 sec.
  Wait time (average)   =    0.00 sec.
                          ------------
Total (root+branch&cut) =    2.91 sec. (4190.08 ticks)

Solution pool: 1 solution saved.

MIP - Integer optimal, tolerance (0.05/1e-06):  Objective =  3.0121334258e+04
Current MIP best bound =  3.0239792084e+04 (gap = 118.458, 0.39%)
Solution time =    2.91 sec.  Iterations = 11738  Nodes = 0 (1)
Deterministic time = 4190.39 ticks  (1441.98 ticks/sec)

CPLEX> Incumbent solution written to file 'C:\Users\wenmi\Desktop\competitiveMPEC\logs\tmprfto__8_.cplex.sol'.
CPLEX> Exporting results... 
